% seed = 0

mint = 33;
% maxt = 132;

nActs = 62;
dur = [0,2,4,3,3,3,3,1,3,3,1,2,4,1,1,4,2,3,3,2,4,1,2,3,3,2,1,1,1,2,2,2,1,1,2,1,3,2,2,3,2,2,2,2,2,5,5,1,3,3,1,1,4,1,3,1,2,2,1,1,1,0];

nSkills = 10;
sreq = [| 0,0,0,0,0,0,0,0,0,0,
	| 0,0,0,0,1,1,1,1,0,0,
	| 0,1,0,0,0,0,0,0,0,1,
	| 2,0,1,1,0,0,0,2,0,0,
	| 1,1,0,0,0,1,0,0,0,0,
	| 0,1,0,0,1,1,0,1,1,0,
	| 0,1,0,0,0,1,1,0,0,0,
	| 1,0,0,0,0,0,0,0,0,1,
	| 0,0,0,1,0,0,0,1,0,0,
	| 0,4,0,1,0,0,0,1,0,0,
	| 0,0,0,0,1,1,1,0,0,1,
	| 2,0,1,0,2,0,1,0,0,0,
	| 0,2,2,2,0,0,0,0,1,0,
	| 0,1,0,0,0,0,1,0,0,0,
	| 1,0,0,0,0,0,0,2,0,0,
	| 0,1,1,0,0,0,1,1,0,0,
	| 0,1,0,1,0,0,0,0,0,0,
	| 0,0,0,1,1,0,0,0,0,0,
	| 1,0,1,0,0,0,0,0,1,0,
	| 1,0,0,0,2,0,0,0,1,0,
	| 0,1,1,0,1,1,0,1,1,0,
	| 0,0,0,0,0,1,0,0,0,1,
	| 0,2,0,1,0,0,0,1,0,0,
	| 0,0,1,0,0,0,1,1,0,0,
	| 1,2,1,0,1,0,0,0,0,0,
	| 1,0,0,1,0,0,0,0,0,1,
	| 1,0,0,0,1,0,1,2,0,2,
	| 2,0,1,1,0,3,0,0,0,0,
	| 1,0,1,0,0,0,0,0,0,1,
	| 2,0,0,0,0,0,0,0,0,0,
	| 0,1,0,0,0,1,0,1,0,0,
	| 0,0,1,2,0,0,0,1,1,0,
	| 2,0,0,1,0,0,1,0,2,2,
	| 0,0,0,1,1,0,0,0,0,1,
	| 1,0,0,0,0,1,1,1,0,1,
	| 0,0,0,1,0,2,3,0,0,1,
	| 1,0,0,0,1,1,2,0,1,0,
	| 0,0,1,1,0,0,0,1,1,0,
	| 1,0,0,2,0,1,0,1,0,1,
	| 0,1,0,1,0,1,0,1,0,0,
	| 1,0,0,0,0,0,1,0,0,0,
	| 0,1,0,1,0,1,1,0,0,0,
	| 0,2,1,0,0,0,0,0,0,0,
	| 0,0,1,0,0,1,1,1,0,1,
	| 0,2,0,1,0,0,1,1,0,0,
	| 1,2,1,0,2,0,0,1,0,1,
	| 0,0,0,0,2,0,0,0,0,1,
	| 0,0,0,0,0,0,1,0,0,2,
	| 0,0,1,0,0,1,0,1,1,0,
	| 0,0,0,0,0,0,0,0,2,1,
	| 1,0,0,0,0,0,1,2,1,1,
	| 1,0,2,0,1,0,0,0,0,1,
	| 1,0,0,1,0,1,1,1,0,2,
	| 0,1,0,0,0,0,0,0,0,1,
	| 0,0,0,0,1,1,0,0,1,0,
	| 2,1,1,0,0,2,0,1,0,0,
	| 0,0,0,0,0,0,0,1,0,2,
	| 0,0,0,1,1,1,0,0,0,0,
	| 0,1,0,0,0,0,0,0,1,0,
	| 0,0,0,1,1,0,1,0,0,1,
	| 0,0,0,0,0,0,1,0,1,0,
	| 0,0,0,0,0,0,0,0,0,0, |];

% SumOfsreq = 247;

nResources = 12;
mastery = [| true,false,true,true,false,true,true,true,true,false,
	| true,true,true,false,true,true,false,true,true,false,
	| true,true,true,true,false,true,true,false,false,true,
	| false,true,false,true,true,false,true,true,true,true,
	| false,true,true,true,true,false,true,true,false,true,
	| true,false,true,true,true,true,false,true,false,true,
	| false,true,true,true,true,false,true,true,false,true,
	| true,true,false,true,true,false,false,true,true,true,
	| true,false,true,true,true,false,true,true,false,true,
	| true,true,false,true,true,false,true,true,true,false,
	| true,true,true,false,false,true,false,true,true,true,
	| true,true,true,true,false,true,false,true,false,true, |];

nPrecs = 112;
pred = [1,1,1,2,2,2,3,3,4,4,4,5,5,5,6,7,7,7,8,8,8,9,9,10,10,10,11,12,13,13,14,14,15,15,15,16,17,17,17,18,18,19,20,20,21,21,21,22,22,22,23,23,23,24,25,25,26,26,26,27,28,29,30,30,31,31,32,32,33,33,34,34,34,35,35,36,37,37,37,38,38,39,39,39,40,40,41,41,42,43,44,45,45,46,46,47,48,49,49,50,51,52,53,54,55,56,56,57,58,59,60,61];
succ = [2,3,4,20,12,16,57,7,17,5,6,9,11,15,18,10,53,8,44,14,23,19,31,17,27,13,21,29,61,22,25,36,37,39,24,38,19,59,43,42,52,60,44,61,33,26,47,28,46,23,43,29,56,45,28,45,45,30,32,35,35,40,34,50,41,34,34,39,51,55,57,51,44,42,38,41,51,47,56,43,40,57,56,48,49,58,46,48,49,52,54,49,48,54,47,52,50,50,54,55,53,58,60,55,59,58,59,61,60,62,62,62];

nUnrels = 1100;
unpred = [2,2,2,2,2,2,2,2,2,2,2,2,2,2,2,2,2,2,2,2,2,2,2,2,2,2,2,2,2,2,2,2,2,2,2,2,2,2,2,2,2,2,3,3,3,3,3,3,3,3,3,3,3,3,3,3,3,3,3,3,3,3,3,4,4,4,4,4,4,4,4,4,4,4,4,4,4,4,4,4,4,5,5,5,5,5,5,5,5,5,5,5,5,5,5,5,5,5,5,5,5,5,5,5,6,6,6,6,6,6,6,6,6,6,6,6,6,6,6,6,6,6,6,6,6,6,6,6,6,6,6,6,6,6,6,6,6,6,6,6,6,6,6,6,6,6,6,6,6,7,7,7,7,7,7,7,7,7,7,7,7,7,7,7,7,7,7,7,8,8,8,8,8,8,8,8,8,8,8,8,8,8,8,8,8,8,8,8,8,8,8,8,8,8,8,9,9,9,9,9,9,9,9,9,9,9,9,9,9,9,9,9,9,9,9,9,9,9,9,9,9,9,9,9,9,9,9,9,10,10,10,10,10,10,10,10,10,10,10,10,10,10,10,10,10,10,10,10,10,10,10,10,10,10,11,11,11,11,11,11,11,11,11,11,11,11,11,11,11,11,11,11,11,11,11,11,11,11,11,11,12,12,12,12,12,12,12,12,12,12,12,12,12,12,12,12,12,12,12,12,12,12,12,12,12,12,12,12,12,12,12,12,12,12,12,12,12,12,12,12,13,13,13,13,13,13,13,13,13,13,13,13,13,13,13,13,13,13,13,13,13,13,13,13,13,13,13,14,14,14,14,14,14,14,14,14,14,14,14,14,14,14,14,14,14,14,14,14,14,14,14,14,14,15,15,15,15,15,15,15,15,15,15,15,15,15,15,15,15,15,15,15,15,15,15,15,15,15,15,15,16,16,16,16,16,16,16,16,16,16,16,16,16,16,16,16,16,16,16,16,16,16,16,16,16,16,16,16,16,16,16,16,16,16,17,17,17,17,17,17,17,17,17,17,17,17,17,17,17,17,17,17,17,17,17,17,17,17,17,17,17,17,17,17,17,17,17,17,17,17,17,17,18,18,18,18,18,18,18,18,18,18,18,18,18,18,18,18,18,18,18,18,18,18,18,18,18,18,18,18,18,18,18,18,18,18,19,19,19,19,19,19,19,19,19,19,19,19,19,19,19,19,19,19,19,19,19,19,19,19,19,19,19,19,19,19,19,19,19,19,19,19,19,19,19,19,19,20,20,20,20,20,20,20,20,20,20,20,20,20,20,20,20,20,20,20,20,20,20,20,20,20,20,20,20,20,20,20,20,20,20,20,20,21,21,21,21,21,21,21,21,21,21,21,21,21,21,21,21,21,22,22,22,22,22,22,22,22,22,22,22,22,22,22,22,22,22,22,22,22,23,23,23,23,23,23,23,23,23,23,23,23,23,23,23,23,23,23,23,23,23,23,23,23,23,23,24,24,24,24,24,24,24,24,24,24,24,24,24,24,24,24,24,24,24,24,24,24,24,24,24,24,24,24,24,24,25,25,25,25,25,25,25,25,25,25,25,25,25,25,25,25,25,25,25,25,26,26,26,26,26,26,26,26,26,26,26,26,26,26,26,26,27,27,27,27,27,27,27,27,27,27,27,27,27,27,27,27,27,27,27,27,27,28,28,28,28,28,28,28,28,28,28,28,28,28,28,28,28,28,28,28,28,29,29,29,29,29,29,29,29,29,29,29,29,29,29,29,29,29,29,29,29,29,29,29,29,30,30,30,30,30,30,30,30,30,30,30,30,30,30,30,30,30,30,30,30,31,31,31,31,31,31,31,31,31,31,31,31,31,32,32,32,32,32,32,32,32,32,32,32,32,32,32,33,33,33,33,33,33,33,33,33,33,33,33,33,33,33,33,33,33,33,33,33,33,33,34,34,34,34,34,34,34,34,34,34,34,34,34,34,34,34,34,34,35,35,35,35,35,35,35,35,35,35,35,35,35,35,36,36,36,36,36,36,36,36,36,36,36,36,36,36,37,37,37,37,37,37,37,37,37,37,37,37,37,37,37,37,38,38,38,38,38,38,38,38,38,38,38,38,38,39,39,39,39,39,39,39,39,39,39,39,39,39,40,40,40,40,40,40,40,40,40,40,40,40,40,40,41,41,41,41,41,41,41,41,41,41,42,42,42,42,42,42,42,42,42,42,42,42,42,42,43,43,43,43,43,43,43,43,43,43,43,43,43,43,43,44,44,44,44,44,44,44,44,44,44,44,44,44,44,45,45,45,45,45,45,45,45,45,45,46,46,46,46,46,46,46,46,47,47,47,47,47,47,47,47,47,47,47,48,48,48,48,48,48,48,48,48,48,49,49,49,49,49,49,49,49,50,50,50,50,50,50,50,50,50,51,51,51,51,51,51,51,51,52,52,52,52,52,52,52,53,53,53,53,53,53,53,54,54,54,54,54,55,55,55,55,55,56,56,57,57,57,58,58,59,59,60];
unsucc = [3,4,5,6,7,8,9,10,11,13,14,15,17,18,19,21,22,23,24,25,26,27,28,30,31,32,33,34,35,36,37,39,41,42,45,46,47,48,51,53,56,57,4,5,6,9,11,12,15,16,18,20,21,24,26,30,31,32,33,34,37,39,51,7,8,10,12,13,14,16,20,22,23,25,27,28,29,35,36,38,40,6,7,8,10,12,13,14,16,17,18,20,22,23,25,27,28,29,35,36,38,40,42,43,7,8,9,10,11,12,13,14,15,16,17,19,20,21,22,23,24,25,26,27,28,29,30,31,32,33,34,35,36,37,38,39,40,41,43,44,45,46,47,48,51,53,56,57,61,9,11,12,15,16,18,20,21,24,26,30,31,32,33,34,37,39,51,57,9,10,11,12,13,15,16,17,18,19,20,21,22,24,26,27,30,31,32,33,34,37,39,51,53,57,61,10,11,12,13,14,15,16,17,18,20,21,22,23,24,25,26,27,28,29,30,32,33,35,36,37,38,39,40,42,43,45,49,56,11,12,14,15,16,18,20,21,24,25,26,30,31,32,33,34,36,37,39,41,44,45,48,51,53,57,12,13,14,15,16,17,18,19,20,22,23,24,25,27,28,29,31,35,36,37,38,40,41,42,43,46,13,14,15,16,17,18,19,20,21,22,23,24,25,26,27,28,30,31,32,33,34,35,36,37,38,39,41,42,43,44,45,46,47,48,51,52,53,56,57,61,14,15,16,17,18,19,20,21,24,25,26,27,30,31,32,33,34,36,37,39,41,44,45,48,51,53,57,15,16,17,18,19,20,21,22,23,24,26,27,29,30,31,32,33,34,37,39,44,51,53,56,57,61,16,17,18,19,20,21,22,23,25,26,27,28,29,30,31,32,33,34,35,36,38,40,41,42,43,44,46,17,18,19,20,21,22,23,24,25,26,27,28,29,30,31,32,33,34,35,36,37,39,41,42,44,45,46,47,48,51,53,56,57,61,18,20,21,22,23,24,25,26,27,28,29,30,31,32,33,34,35,36,37,38,39,40,41,42,44,45,46,47,48,49,50,51,53,54,55,56,57,61,19,20,21,22,23,24,25,26,27,28,29,30,31,32,33,34,35,36,37,38,39,40,41,43,44,45,46,47,48,51,53,56,57,61,20,21,22,23,24,25,26,27,28,29,30,31,32,33,34,35,36,37,38,39,40,41,42,43,44,45,46,47,48,49,50,51,52,53,54,55,56,57,58,59,61,21,22,23,24,25,26,27,28,29,30,31,32,33,34,35,36,37,38,39,40,41,42,43,45,46,47,48,49,50,51,52,53,56,57,58,60,22,23,24,25,27,28,29,31,35,36,37,38,40,41,42,43,46,24,25,26,27,30,31,32,33,34,36,37,39,41,44,45,48,51,53,57,61,24,25,26,27,28,30,31,32,33,34,35,36,37,38,39,41,42,44,45,46,47,48,51,53,57,61,25,26,27,28,29,30,31,32,33,34,35,36,37,38,39,40,41,42,43,44,46,47,51,52,53,56,57,58,60,61,26,27,29,30,31,32,33,34,36,37,39,41,44,46,47,51,53,56,57,61,27,28,29,31,33,35,36,37,38,40,41,42,43,46,47,52,28,29,30,31,32,33,34,36,37,39,41,44,45,46,47,48,51,53,56,57,61,29,30,31,32,33,34,36,37,39,41,44,45,46,47,48,51,53,56,57,61,30,31,32,33,34,35,36,37,38,39,41,42,43,44,45,46,47,48,51,52,53,56,57,61,31,32,33,35,36,37,38,39,40,41,42,43,45,46,47,48,49,52,56,58,32,33,35,36,37,38,39,40,42,43,45,49,56,33,35,36,37,38,40,41,42,43,45,46,47,49,52,34,35,36,37,38,39,40,41,42,43,44,45,46,47,48,49,50,52,54,56,57,58,61,35,36,37,38,39,40,41,42,43,45,46,47,48,49,50,52,56,58,36,37,39,41,44,45,46,47,48,51,53,56,57,61,37,38,39,40,42,43,44,45,49,51,53,56,57,61,38,39,40,41,42,43,44,45,46,48,49,50,54,55,57,61,39,41,42,44,45,46,47,48,51,53,56,57,61,40,41,42,43,44,45,46,47,49,51,52,53,54,41,42,43,44,45,46,47,48,51,52,53,56,57,61,42,43,44,45,49,51,53,56,57,61,43,44,45,46,47,48,51,52,53,56,57,58,60,61,44,45,46,47,48,49,50,51,53,54,55,56,57,59,61,45,46,47,48,49,50,51,52,53,56,57,58,60,61,46,47,51,52,53,56,57,58,60,61,48,49,50,51,53,56,57,61,48,49,50,51,53,54,55,56,57,59,61,49,51,52,53,54,56,57,58,60,61,51,52,53,56,57,58,60,61,51,52,53,54,56,57,58,60,61,52,54,55,56,57,58,59,61,53,54,55,56,57,59,61,54,55,56,57,58,59,61,56,57,58,60,61,56,57,58,60,61,57,61,58,59,60,59,61,60,61,61];

USEFUL_RES = [{},
	{1,2,3,4,5,6,7,8,9,10,11,12},
	{2,3,4,5,6,7,8,9,10,11,12},
	{1,2,3,4,5,6,7,8,9,10,11,12},
	{1,2,3,4,5,6,7,8,9,10,11,12},
	{1,2,3,4,5,6,7,8,9,10,11,12},
	{1,2,3,4,5,6,7,8,9,10,11,12},
	{1,2,3,4,5,6,7,8,9,10,11,12},
	{1,2,3,4,5,6,7,8,9,10,11,12},
	{1,2,3,4,5,6,7,8,9,10,11,12},
	{1,2,3,4,5,6,7,8,9,10,11,12},
	{1,2,3,4,5,6,7,8,9,10,11,12},
	{1,2,3,4,5,6,7,8,9,10,11,12},
	{1,2,3,4,5,7,8,9,10,11,12},
	{1,2,3,4,5,6,7,8,9,10,11,12},
	{1,2,3,4,5,6,7,8,9,10,11,12},
	{1,2,3,4,5,6,7,8,9,10,11,12},
	{1,2,3,4,5,6,7,8,9,10,12},
	{1,2,3,4,5,6,7,8,9,10,11,12},
	{1,2,3,4,5,6,7,8,9,10,11,12},
	{1,2,3,4,5,6,7,8,9,10,11,12},
	{1,2,3,4,5,6,7,8,9,11,12},
	{1,2,3,4,5,6,7,8,9,10,11,12},
	{1,2,3,4,5,6,7,8,9,10,11,12},
	{1,2,3,4,5,6,7,8,9,10,11,12},
	{1,2,3,4,5,6,7,8,9,10,11,12},
	{1,2,3,4,5,6,7,8,9,10,11,12},
	{1,2,3,4,5,6,7,8,9,10,11,12},
	{1,2,3,4,5,6,7,8,9,10,11,12},
	{1,2,3,6,8,9,10,11,12},
	{1,2,3,4,5,6,7,8,9,10,11,12},
	{1,2,3,4,5,6,7,8,9,10,11,12},
	{1,2,3,4,5,6,7,8,9,10,11,12},
	{1,2,3,4,5,6,7,8,9,10,11,12},
	{1,2,3,4,5,6,7,8,9,10,11,12},
	{1,2,3,4,5,6,7,8,9,10,11,12},
	{1,2,3,4,5,6,7,8,9,10,11,12},
	{1,2,3,4,5,6,7,8,9,10,11,12},
	{1,2,3,4,5,6,7,8,9,10,11,12},
	{1,2,3,4,5,6,7,8,9,10,11,12},
	{1,2,3,4,5,6,7,8,9,10,11,12},
	{1,2,3,4,5,6,7,8,9,10,11,12},
	{1,2,3,4,5,6,7,8,9,10,11,12},
	{1,2,3,4,5,6,7,8,9,10,11,12},
	{1,2,3,4,5,6,7,8,9,10,11,12},
	{1,2,3,4,5,6,7,8,9,10,11,12},
	{2,3,4,5,6,7,8,9,10,11,12},
	{1,3,4,5,6,7,8,9,10,11,12},
	{1,2,3,4,5,6,7,8,9,10,11,12},
	{1,2,3,4,5,6,7,8,9,10,11,12},
	{1,2,3,4,5,6,7,8,9,10,11,12},
	{1,2,3,4,5,6,7,8,9,10,11,12},
	{1,2,3,4,5,6,7,8,9,10,11,12},
	{2,3,4,5,6,7,8,9,10,11,12},
	{1,2,3,4,5,6,7,8,9,10,11,12},
	{1,2,3,4,5,6,7,8,9,10,11,12},
	{1,2,3,4,5,6,7,8,9,10,11,12},
	{1,2,3,4,5,6,7,8,9,10,11,12},
	{1,2,3,4,5,7,8,10,11,12},
	{1,2,3,4,5,6,7,8,9,10,11,12},
	{1,2,3,4,5,7,8,9,10,11},
	{}];

POTENTIAL_ACT = [{2,4,5,6,7,8,9,10,11,12,13,14,15,16,17,18,19,20,21,22,23,24,25,26,27,28,29,30,31,32,33,34,35,36,37,38,39,40,41,42,43,44,45,46,48,49,50,51,52,53,55,56,57,58,59,60,61},
	{2,3,4,5,6,7,8,9,10,11,12,13,14,15,16,17,18,19,20,21,22,23,24,25,26,27,28,29,30,31,32,33,34,35,36,37,38,39,40,41,42,43,44,45,46,47,49,50,51,52,53,54,55,56,57,58,59,60,61},
	{2,3,4,5,6,7,8,9,10,11,12,13,14,15,16,17,18,19,20,21,22,23,24,25,26,27,28,29,30,31,32,33,34,35,36,37,38,39,40,41,42,43,44,45,46,47,48,49,50,51,52,53,54,55,56,57,58,59,60,61},
	{2,3,4,5,6,7,8,9,10,11,12,13,14,15,16,17,18,19,20,21,22,23,24,25,26,27,28,29,31,32,33,34,35,36,37,38,39,40,41,42,43,44,45,46,47,48,49,50,51,52,53,54,55,56,57,58,59,60,61},
	{2,3,4,5,6,7,8,9,10,11,12,13,14,15,16,17,18,19,20,21,22,23,24,25,26,27,28,29,31,32,33,34,35,36,37,38,39,40,41,42,43,44,45,46,47,48,49,50,51,52,53,54,55,56,57,58,59,60,61},
	{2,3,4,5,6,7,8,9,10,11,12,13,15,16,17,18,19,20,21,22,23,24,25,26,27,28,29,30,31,32,33,34,35,36,37,38,39,40,41,42,43,44,45,46,47,48,49,50,51,52,53,54,55,56,57,58,60},
	{2,3,4,5,6,7,8,9,10,11,12,13,14,15,16,17,18,19,20,21,22,23,24,25,26,27,28,29,31,32,33,34,35,36,37,38,39,40,41,42,43,44,45,46,47,48,49,50,51,52,53,54,55,56,57,58,59,60,61},
	{2,3,4,5,6,7,8,9,10,11,12,13,14,15,16,17,18,19,20,21,22,23,24,25,26,27,28,29,30,31,32,33,34,35,36,37,38,39,40,41,42,43,44,45,46,47,48,49,50,51,52,53,54,55,56,57,58,59,60,61},
	{2,3,4,5,6,7,8,9,10,11,12,13,14,15,16,17,18,19,20,21,22,23,24,25,26,27,28,29,30,31,32,33,34,35,36,37,38,39,40,41,42,43,44,45,46,47,48,49,50,51,52,53,54,55,56,57,58,60,61},
	{2,3,4,5,6,7,8,9,10,11,12,13,14,15,16,17,18,19,20,21,23,24,25,26,27,28,29,30,31,32,33,34,35,36,37,38,39,40,41,42,43,44,45,46,47,48,49,50,51,52,53,54,55,56,57,58,59,60,61},
	{2,3,4,5,6,7,8,9,10,11,12,13,14,15,16,17,19,20,21,22,23,24,25,26,27,28,29,30,31,32,33,34,35,36,37,38,39,40,41,42,43,44,45,46,47,48,49,50,51,52,53,54,55,56,57,58,59,60,61},
	{2,3,4,5,6,7,8,9,10,11,12,13,14,15,16,17,18,19,20,21,22,23,24,25,26,27,28,29,30,31,32,33,34,35,36,37,38,39,40,41,42,43,44,45,46,47,48,49,50,51,52,53,54,55,56,57,58,59,60}];
